0 1
0 2
0 3
0 4
0 5
0 6
0 9
0 10
0 12
0 13
0 14
0 16
0 18
0 19
0 20
0 21
0 29
0 34
0 35
0 37
0 39
0 42
0 44
0 45
0 47
0 48
0 49
0 52
0 54
0 55
0 56
0 58
0 62
0 63
0 64
0 65
0 67
0 70
0 74
0 78
0 79
0 86
0 90
0 94
0 98
0 100
0 101
0 103
0 104
0 105
0 107
0 108
0 112
0 113
0 117
0 118
0 119
0 121
0 122
0 124
0 125
0 126
0 130
0 132
0 135
0 137
0 139
0 140
0 146
0 148
0 149
0 151
0 153
0 161
0 162
0 164
0 166
0 171
0 174
0 175
0 178
0 179
0 180
0 187
0 189
0 190
0 191
0 200
0 201
0 204
0 213
0 220
0 221
0 229
0 243
0 244
0 245
0 246
0 247
0 252
0 255
0 257
0 273
0 274
0 275
0 276
0 277
0 278
0 279
0 288
0 289
0 290
0 314
0 315
0 316
0 317
0 318
0 319
0 320
0 321
0 322
0 323
0 329
0 332
0 333
0 394
0 395
0 396
0 397
0 398
0 399
0 400
0 401
0 402
0 403
0 404
0 405
0 406
0 407
0 411
0 426
0 437
0 444
0 714
0 715
0 716
0 717
0 718
0 719
0 720
0 721
0 722
0 723
0 724
0 725
0 726
0 727
0 728
0 729
0 730
0 731
0 732
0 733
0 734
0 735
0 736
0 737
0 738
0 739
0 740
0 741
0 742
0 743
0 744
0 745
0 746
0 747
0 748
0 749
0 750
0 751
0 752
0 753
0 754
0 755
0 756
0 757
0 758
0 759
0 760
0 761
0 762
0 763
0 764
0 765
0 766
0 767
0 768
0 769
0 770
0 771
0 772
0 773
0 774
0 775
0 776
0 777
0 784
0 802
0 816
0 817
0 832
0 976
0 977
0 978
0 979
0 980
1 2
1 3
1 4
1 5
1 6
1 7
1 8
1 9
1 10
1 12
1 14
1 16
1 17
1 18
1 19
1 20
1 25
1 32
1 35
1 36
1 42
1 44
1 45
1 48
1 49
1 52
1 55
1 56
1 63
1 64
1 65
1 70
1 74
1 78
1 82
1 83
1 86
1 94
1 99
1 101
1 104
1 106
1 107
1 113
1 119
1 121
1 122
1 124
1 131
1 132
1 134
1 135
1 139
1 143
1 161
1 174
1 177
1 178
1 180
1 188
1 190
1 191
1 192
1 204
1 206
1 217
1 221
1 232
1 235
1 243
1 244
1 245
1 247
1 255
1 257
1 264
1 265
1 279
1 280
1 289
1 303
1 308
1 317
1 319
1 321
1 322
1 327
1 338
1 339
1 340
1 342
1 343
1 344
1 363
1 370
1 372
1 376
1 398
1 400
1 401
1 407
1 411
1 417
1 423
1 475
1 476
1 477
1 478
1 479
1 480
1 481
1 482
1 483
1 484
1 485
1 486
1 487
1 488
1 489
1 490
1 491
1 506
1 520
1 523
1 524
1 525
1 536
1 537
1 552
1 555
1 556
1 561
1 568
1 569
1 571
1 577
1 579
1 580
1 587
1 588
1 591
1 601
1 615
1 626
1 639
1 674
1 681
1 699
1 719
1 727
1 728
1 730
1 731
1 735
1 739
1 751
1 753
1 757
1 758
1 763
1 764
1 767
1 784
1 788
1 793
1 804
1 807
1 808
1 833
1 834
1 867
1 868
1 869
1 870
1 871
1 925
1 927
1 994
1 995
2 3
2 4
2 5
2 6
2 7
2 8
2 10
2 11
2 12
2 14
2 15
2 16
2 17
2 18
2 20
2 21
2 23
2 24
2 26
2 28
2 31
2 32
2 33
2 35
2 37
2 40
2 41
2 43
2 44
2 47
2 48
2 50
2 51
2 52
2 55
2 56
2 57
2 59
2 60
2 61
2 62
2 64
2 66
2 68
2 69
2 70
2 85
2 86
2 93
2 94
2 96
2 99
2 103
2 105
2 120
2 125
2 128
2 145
2 146
2 161
2 166
2 169
2 173
2 187
2 188
2 190
2 191
2 194
2 207
2 215
2 223
2 225
2 229
2 252
2 253
2 277
2 281
2 282
2 293
2 294
2 296
2 312
2 314
2 319
2 320
2 348
2 349
2 353
2 385
2 391
2 537
2 538
2 540
2 542
2 576
2 579
2 609
2 903
3 4
3 5
3 6
3 7
3 9
3 10
3 12
3 13
3 14
3 16
3 17
3 18
3 19
3 20
3 21
3 23
3 27
3 28
3 35
3 36
3 39
3 42
3 43
3 44
3 46
3 48
3 49
3 50
3 52
3 55
3 59
3 60
3 63
3 65
3 70
3 74
3 78
3 79
3 86
3 94
3 96
3 100
3 101
3 104
3 106
3 107
3 108
3 110
3 112
3 113
3 118
3 119
3 121
3 122
3 124
3 125
3 128
3 130
3 132
3 141
3 144
3 148
3 149
3 150
3 155
3 161
3 164
3 174
3 177
3 178
3 186
3 192
3 195
3 201
3 204
3 208
3 210
3 220
3 228
3 229
3 233
3 234
3 247
3 250
3 252
3 265
3 273
3 275
3 278
3 280
3 284
3 285
3 288
3 305
3 309
3 316
3 317
3 322
3 327
3 332
3 342
3 343
3 344
3 350
3 393
3 398
3 399
3 400
3 403
3 405
3 408
3 419
3 423
3 424
3 426
3 429
3 497
3 498
3 499
3 500
3 501
3 502
3 503
3 504
3 505
3 506
3 507
3 508
3 509
3 510
3 511
3 528
3 563
3 569
3 571
3 584
3 598
3 608
3 612
3 620
3 639
3 648
3 659
3 663
3 665
3 682
3 705
3 707
3 743
3 755
3 812
3 818
3 883
3 895
3 905
3 951
4 5
4 6
4 8
4 9
4 10
4 11
4 12
4 13
4 14
4 16
4 17
4 18
4 19
4 20
4 21
4 22
4 23
4 25
4 28
4 31
4 34
4 35
4 36
4 38
4 40
4 41
4 44
4 45
4 46
4 48
4 49
4 51
4 52
4 53
4 55
4 57
4 58
4 60
4 62
4 63
4 64
4 65
4 66
4 67
4 68
4 71
4 73
4 74
4 76
4 78
4 79
4 80
4 81
4 82
4 83
4 85
4 86
4 87
4 88
4 89
4 90
4 91
4 94
4 96
4 97
4 99
4 101
4 103
4 104
4 105
4 106
4 107
4 109
4 111
4 113
4 115
4 116
4 119
4 120
4 121
4 124
4 128
4 131
4 133
4 135
4 138
4 139
4 143
4 144
4 146
4 147
4 148
4 149
4 153
4 158
4 159
4 163
4 164
4 166
4 167
4 170
4 174
4 179
4 185
4 186
4 190
4 194
4 198
4 202
4 205
4 208
4 212
4 215
4 222
4 230
4 233
4 239
4 240
4 241
4 253
4 268
4 269
4 279
4 283
4 287
4 291
4 306
4 307
4 308
4 309
4 318
4 321
4 326
4 328
4 329
4 380
4 381
4 382
4 383
4 384
4 395
4 396
4 427
4 689
4 690
4 691
4 692
4 693
4 694
4 734
4 750
4 754
4 790
4 803
4 830
4 969
4 970
4 971
4 972
5 6
5 8
5 9
5 10
5 12
5 14
5 16
5 18
5 19
5 20
5 21
5 24
5 25
5 28
5 35
5 44
5 46
5 47
5 48
5 50
5 52
5 55
5 58
5 59
5 60
5 63
5 66
5 70
5 80
5 83
5 88
5 93
5 105
5 106
5 117
5 127
5 141
5 164
5 178
5 205
5 208
5 217
5 221
5 235
5 245
5 254
5 263
5 273
5 274
5 276
5 278
5 279
5 311
5 312
5 314
5 322
5 328
5 333
5 362
5 363
5 364
5 373
5 375
5 378
5 379
5 394
5 401
5 415
5 442
5 584
5 585
5 586
5 587
5 588
5 589
5 590
5 591
5 592
5 593
5 594
5 595
5 596
5 597
5 598
5 599
5 600
5 601
5 602
5 603
5 604
5 605
5 606
5 607
5 608
5 609
5 610
5 613
5 650
5 655
5 688
5 690
5 701
5 712
5 724
5 759
5 833
5 932
5 933
5 934
5 935
5 936
5 937
5 938
6 8
6 9
6 10
6 11
6 12
6 13
6 14
6 15
6 16
6 17
6 18
6 19
6 20
6 21
6 24
6 25
6 28
6 29
6 31
6 33
6 34
6 35
6 36
6 37
6 38
6 42
6 43
6 44
6 48
6 49
6 52
6 55
6 56
6 57
6 58
6 59
6 60
6 61
6 63
6 64
6 68
6 70
6 74
6 75
6 78
6 81
6 82
6 90
6 93
6 101
6 104
6 105
6 107
6 108
6 112
6 115
6 121
6 124
6 132
6 139
6 142
6 143
6 145
6 146
6 158
6 159
6 167
6 174
6 175
6 177
6 183
6 190
6 198
6 206
6 207
6 215
6 228
6 229
6 230
6 231
6 254
6 255
6 287
6 288
6 328
6 329
6 426
6 427
6 428
6 429
6 818
6 819
6 820
6 821
6 996
7 8
7 9
7 10
7 11
7 12
7 14
7 15
7 16
7 20
7 21
7 23
7 25
7 26
7 27
7 28
7 31
7 32
7 35
7 36
7 41
7 45
7 46
7 47
7 48
7 50
7 52
7 55
7 57
7 59
7 60
7 61
7 63
7 69
7 70
7 75
7 90
7 105
7 110
7 127
7 141
7 186
7 187
7 191
7 233
7 274
7 285
7 301
7 313
7 375
7 376
7 377
7 407
7 412
7 418
7 440
7 445
7 665
7 666
7 667
7 668
7 669
7 670
7 671
7 672
7 673
7 674
7 689
7 713
7 740
7 765
7 773
7 810
7 823
7 960
7 961
7 962
7 963
7 964
7 965
7 968
7 990
8 10
8 11
8 14
8 15
8 16
8 18
8 19
8 20
8 21
8 23
8 26
8 28
8 29
8 31
8 35
8 36
8 40
8 43
8 44
8 46
8 47
8 48
8 50
8 52
8 53
8 55
8 57
8 58
8 59
8 60
8 61
8 63
8 65
8 70
8 75
8 76
8 103
8 105
8 109
8 110
8 113
8 115
8 123
8 124
8 137
8 161
8 167
8 169
8 174
8 177
8 197
8 217
8 218
8 220
8 224
8 229
8 231
8 232
8 238
8 248
8 250
8 257
8 273
8 276
8 277
8 281
8 285
8 289
8 303
8 305
8 306
8 310
8 315
8 319
8 332
8 336
8 338
8 339
8 340
8 342
8 343
8 344
8 350
8 352
8 356
8 357
8 358
8 361
8 363
8 364
8 365
8 367
8 371
8 373
8 375
8 376
8 378
8 379
8 380
8 383
8 384
8 390
8 392
8 393
8 402
8 405
8 411
8 412
8 415
8 439
8 443
8 446
8 447
8 448
8 449
8 450
8 455
8 456
8 457
8 458
8 459
8 461
8 464
8 465
8 466
8 467
8 471
8 472
8 475
8 476
8 478
8 480
8 482
8 483
8 484
8 486
8 487
8 488
8 490
8 492
8 494
8 495
8 497
8 499
8 501
8 502
8 503
8 504
8 505
8 507
8 508
8 510
8 511
8 514
8 516
8 518
8 521
8 523
8 524
8 525
8 528
8 529
8 530
8 533
8 534
8 535
8 538
8 539
8 541
8 543
8 544
8 545
8 546
8 553
8 554
8 557
8 560
8 561
8 564
8 566
8 570
8 577
8 580
8 581
8 582
8 585
8 586
8 590
8 593
8 594
8 596
8 597
8 599
8 602
8 604
8 605
8 606
8 607
8 612
8 613
8 614
8 615
8 620
8 621
8 624
8 626
8 631
8 633
8 634
8 635
8 636
8 638
8 641
8 643
8 645
8 648
8 652
8 654
8 655
8 656
8 657
8 658
8 662
8 664
8 667
8 668
8 669
8 670
8 672
8 673
8 679
8 680
8 682
8 684
8 685
8 687
8 693
8 694
8 696
8 698
8 701
8 703
8 704
8 708
8 709
8 710
8 711
8 713
8 714
8 716
8 717
8 718
8 720
8 721
8 723
8 725
8 726
8 732
8 736
8 737
8 741
8 742
8 744
8 745
8 746
8 748
8 749
8 756
8 761
8 762
8 769
8 770
8 771
8 772
8 775
8 779
8 783
8 788
8 792
8 796
8 797
8 804
8 805
8 808
8 809
8 811
8 812
8 813
8 815
8 816
8 819
8 821
8 825
8 826
8 829
8 831
8 832
8 836
8 839
8 840
8 841
8 842
8 843
8 844
8 846
8 847
8 848
8 849
8 850
8 853
8 854
8 855
8 856
8 857
8 858
8 859
8 861
8 862
8 872
8 873
8 874
8 875
8 877
8 878
8 879
8 880
8 881
8 882
8 885
8 886
8 888
8 890
8 891
8 893
8 898
8 900
8 901
8 904
8 906
8 907
8 912
8 913
8 917
8 918
8 922
8 923
8 926
8 928
8 929
8 930
8 931
8 941
8 942
8 943
8 944
8 947
8 948
8 952
8 953
8 955
8 956
8 957
8 958
8 967
8 973
8 974
8 975
8 983
8 984
8 987
8 988
8 989
9 10
9 11
9 12
9 13
9 14
9 15
9 16
9 17
9 18
9 19
9 20
9 21
9 24
9 26
9 27
9 28
9 31
9 32
9 35
9 36
9 37
9 40
9 41
9 44
9 47
9 48
9 50
9 52
9 53
9 55
9 61
9 63
9 65
9 66
9 80
9 103
9 105
9 113
9 124
9 138
9 141
9 158
9 162
9 172
9 173
9 179
9 181
9 202
9 203
9 221
9 223
9 251
9 254
9 287
9 335
9 339
9 348
9 385
9 432
9 493
9 559
9 830
10 12
10 14
10 16
10 17
10 18
10 20
10 21
10 28
10 29
10 35
10 37
10 40
10 44
10 50
10 52
10 57
10 58
10 59
10 63
10 66
10 69
10 70
10 107
10 120
10 125
10 143
10 146
10 180
10 187
10 192
10 209
10 218
10 238
10 263
10 267
10 271
10 301
10 306
10 310
10 332
10 367
10 372
10 404
10 406
10 455
10 456
10 457
10 491
10 498
10 509
10 535
10 546
10 551
10 553
10 560
10 562
10 650
10 706
10 774
10 817
10 981
11 13
11 15
11 20
11 21
11 23
11 24
11 26
11 27
11 29
11 30
11 32
11 33
11 35
11 37
11 40
11 41
11 43
11 46
11 51
11 53
11 57
11 64
11 65
11 67
11 68
11 71
11 76
11 81
11 82
11 84
11 87
11 90
11 93
11 99
11 103
11 109
11 115
11 120
11 123
11 124
11 128
11 131
11 135
11 136
11 137
11 151
11 185
11 193
11 214
11 223
11 241
11 242
11 251
11 253
11 258
11 268
11 335
11 837
12 13
12 14
12 15
12 16
12 17
12 18
12 19
12 20
12 21
12 24
12 25
12 26
12 29
12 30
12 35
12 37
12 40
12 41
12 42
12 44
12 45
12 46
12 48
12 49
12 51
12 52
12 53
12 54
12 55
12 56
12 57
12 59
12 63
12 68
12 70
12 74
12 75
12 78
12 80
12 81
12 86
12 90
12 93
12 94
12 101
12 104
12 105
12 107
12 109
12 110
12 112
12 113
12 118
12 121
12 123
12 126
12 132
12 137
12 146
12 147
12 149
12 166
12 172
12 173
12 176
12 186
12 193
12 200
12 201
12 221
12 224
12 243
12 251
12 270
12 294
12 313
12 351
12 409
12 434
12 492
12 642
12 680
12 822
13 14
13 15
13 16
13 17
13 18
13 19
13 20
13 24
13 29
13 30
13 31
13 34
13 37
13 39
13 43
13 44
13 48
13 55
13 57
13 63
13 64
13 67
13 86
13 87
13 98
13 130
13 151
13 179
13 200
13 202
13 220
13 246
13 247
13 436
13 578
13 795
14 16
14 17
14 18
14 19
14 20
14 24
14 26
14 31
14 32
14 40
14 41
14 42
14 44
14 45
14 50
14 52
14 59
14 60
14 63
14 64
14 65
14 70
14 71
14 74
14 75
14 78
14 79
14 86
14 101
14 104
14 107
14 108
14 109
14 112
14 116
14 119
14 120
14 128
14 141
14 143
14 146
14 149
14 166
14 190
14 229
14 281
14 311
14 312
14 328
14 390
14 391
14 392
14 414
14 417
14 703
14 704
14 705
14 706
14 707
14 708
14 709
14 710
14 711
14 835
15 16
15 17
15 19
15 20
15 21
15 23
15 24
15 26
15 27
15 28
15 29
15 30
15 32
15 33
15 35
15 37
15 40
15 41
15 43
15 46
15 52
15 53
15 57
15 62
15 64
15 65
15 67
15 68
15 71
15 75
15 76
15 81
15 82
15 84
15 86
15 90
15 93
15 99
15 103
15 107
15 109
15 115
15 120
15 123
15 124
15 128
15 131
15 135
15 137
15 167
15 181
15 183
15 193
15 202
15 214
15 223
15 230
15 242
15 258
16 17
16 18
16 19
16 20
16 21
16 23
16 24
16 29
16 30
16 31
16 32
16 33
16 36
16 37
16 40
16 44
16 48
16 50
16 52
16 55
16 57
16 59
16 63
16 64
16 68
16 70
16 71
16 76
16 82
16 87
16 89
16 93
16 94
16 98
16 107
16 115
16 118
16 124
16 135
16 146
16 149
16 163
16 166
16 181
16 185
16 193
16 215
16 438
16 617
17 18
17 19
17 20
17 21
17 24
17 26
17 27
17 28
17 33
17 35
17 37
17 43
17 63
17 179
17 247
17 270
17 289
17 302
17 308
17 436
17 469
17 558
17 795
17 806
17 887
18 19
18 20
18 21
18 23
18 24
18 26
18 28
18 29
18 30
18 31
18 35
18 37
18 44
18 48
18 50
18 52
18 53
18 55
18 57
18 58
18 59
18 60
18 61
18 63
18 64
18 68
18 70
18 82
18 85
18 86
18 93
18 97
18 103
18 105
18 107
18 118
18 121
18 122
18 123
18 129
18 145
18 149
18 151
18 165
18 166
18 167
18 169
18 174
18 183
18 189
18 194
18 202
18 203
18 224
18 225
18 226
18 231
18 251
18 252
18 282
18 287
18 325
18 799
18 800
18 801
18 828
19 20
19 21
19 23
19 24
19 26
19 28
19 31
19 35
19 44
19 48
19 50
19 52
19 55
19 57
19 58
19 60
19 63
19 64
19 67
19 68
19 69
19 70
19 82
19 93
19 94
19 110
19 117
19 121
19 128
19 145
19 146
19 149
19 151
19 163
19 166
19 179
19 181
19 270
19 282
19 302
19 341
19 353
19 388
19 470
19 697
20 21
20 24
20 27
20 28
20 31
20 35
20 36
20 44
20 46
20 48
20 52
20 55
20 57
20 63
20 64
20 67
20 70
20 75
20 82
20 84
20 93
20 94
20 103
20 105
20 107
20 118
20 123
20 124
20 146
20 149
20 166
20 193
20 215
20 242
20 270
20 385
21 23
21 24
21 25
21 26
21 27
21 28
21 29
21 31
21 32
21 33
21 35
21 37
21 40
21 43
21 45
21 46
21 48
21 50
21 53
21 55
21 57
21 58
21 59
21 60
21 61
21 62
21 64
21 65
21 67
21 68
21 69
21 70
21 71
21 75
21 76
21 82
21 84
21 85
21 93
21 103
21 105
21 107
21 109
21 110
21 115
21 120
21 123
21 128
21 135
21 136
21 155
21 159
21 167
21 183
21 193
21 214
21 223
21 224
21 230
21 231
21 242
21 515
21 578
21 653
22 80
22 95
22 100
22 125
22 138
22 142
22 221
22 257
22 303
22 309
22 352
22 381
22 437
22 465
22 466
22 467
22 479
22 489
22 494
22 527
22 600
22 671
22 789
22 829
22 919
22 945
23 24
23 26
23 28
23 29
23 31
23 32
23 33
23 35
23 37
23 43
23 44
23 93
23 124
23 220
23 241
23 268
23 300
23 436
23 438
23 463
23 469
23 691
24 27
24 29
24 31
24 32
24 33
24 37
24 43
24 45
24 46
24 48
24 53
24 55
24 57
24 60
24 63
24 64
24 65
24 67
24 68
24 71
24 76
24 82
24 85
24 93
24 103
24 107
24 120
24 128
24 151
24 167
24 181
24 183
24 214
24 241
24 348
24 453
24 782
25 26
25 28
25 32
25 33
25 36
25 50
25 52
25 54
25 55
25 785
25 786
26 27
26 28
26 29
26 31
26 32
26 33
26 35
26 40
26 41
26 45
26 46
26 49
26 50
26 53
26 57
26 58
26 59
26 60
26 61
26 67
26 68
26 69
26 70
26 71
26 75
26 76
26 81
26 82
26 86
26 90
26 93
26 99
26 103
26 105
26 107
26 109
26 110
26 115
26 123
26 124
26 128
26 131
26 135
26 136
26 137
26 148
26 161
26 162
26 167
26 169
26 180
26 185
26 186
26 187
26 206
26 213
26 224
26 231
26 298
26 409
26 791
27 28
27 29
27 32
27 33
27 35
27 37
27 41
27 50
27 51
27 52
27 61
27 62
27 64
27 65
27 66
27 68
27 70
27 82
27 83
27 84
27 86
27 93
27 94
27 96
27 113
27 120
27 123
27 124
27 126
27 127
27 135
27 147
27 148
27 159
27 162
27 164
27 183
27 185
27 187
27 193
27 202
27 206
27 214
27 241
27 268
27 359
27 408
28 29
28 32
28 33
28 35
28 36
28 39
28 40
28 41
28 44
28 45
28 46
28 48
28 50
28 52
28 53
28 55
28 57
28 58
28 59
28 60
28 62
28 65
28 66
28 67
28 68
28 69
28 70
28 71
28 73
28 75
28 81
28 82
28 86
28 90
28 93
28 94
28 99
28 105
28 109
28 110
28 115
28 123
28 124
28 126
28 128
28 137
28 160
28 161
28 168
28 172
28 176
28 180
28 182
28 199
28 200
28 206
28 330
28 354
28 434
28 675
29 30
29 32
29 33
29 35
29 37
29 41
29 43
29 46
29 48
29 50
29 51
29 52
29 55
29 59
29 61
29 63
29 86
29 93
29 113
29 129
29 131
29 136
29 146
29 149
29 155
29 156
29 165
29 166
29 201
29 202
29 215
29 413
29 421
29 425
30 31
30 34
30 48
30 51
30 87
30 98
30 211
30 256
30 259
30 337
30 460
30 583
30 916
31 32
31 33
31 34
31 35
31 37
31 41
31 44
31 48
31 52
31 55
31 58
31 61
31 71
31 85
31 86
31 93
31 97
31 103
31 124
31 131
31 136
31 179
31 493
32 33
32 35
32 37
32 40
32 41
32 45
32 46
32 51
32 52
32 55
32 57
32 61
32 64
32 65
32 67
32 68
32 71
32 75
32 81
32 82
32 84
32 103
32 107
32 109
32 115
32 120
32 124
32 128
32 131
32 135
32 136
32 137
32 161
32 167
32 169
32 193
32 206
32 282
32 307
33 35
33 37
33 41
33 43
33 45
33 47
33 48
33 49
33 51
33 52
33 55
33 57
33 58
33 61
33 62
33 64
33 65
33 68
33 69
33 70
33 86
33 93
33 94
33 105
33 106
33 110
33 124
33 131
33 136
33 137
33 148
33 156
33 185
33 194
33 202
33 213
33 283
33 335
33 397
33 421
33 425
33 573
33 686
34 87
34 445
34 512
35 36
35 39
35 41
35 46
35 50
35 52
35 53
35 57
35 58
35 59
35 60
35 63
35 67
35 68
35 69
35 70
35 71
35 73
35 75
35 81
35 82
35 90
35 105
35 107
35 109
35 113
35 115
35 121
35 123
35 126
35 136
35 137
35 160
35 161
35 168
35 172
35 176
35 182
35 199
35 200
35 231
35 330
35 431
35 432
35 433
35 434
35 822
36 38
36 46
36 54
36 55
36 110
36 154
36 171
36 172
36 200
37 43
37 46
37 51
37 57
37 60
37 64
37 65
37 67
37 68
37 71
37 76
37 82
37 87
37 93
37 103
37 115
37 120
37 123
37 151
37 193
37 214
37 241
37 291
38 419
38 685
38 686
38 824
39 54
39 60
39 63
39 117
39 140
39 171
39 189
39 200
39 201
39 246
39 323
39 374
39 760
40 41
40 48
40 50
40 52
40 55
40 61
40 63
40 93
40 178
40 273
40 403
40 406
40 446
40 659
40 884
40 908
40 939
41 45
41 49
41 53
41 58
41 60
41 65
41 67
41 71
41 75
41 76
41 81
41 82
41 86
41 90
41 99
41 103
41 107
41 109
41 113
41 115
41 123
41 124
41 128
41 131
41 135
41 136
41 137
41 148
41 162
41 167
41 169
41 185
41 213
41 298
41 313
41 377
41 566
41 567
41 635
41 646
42 136
42 177
42 261
42 419
42 462
42 661
42 738
42 752
43 46
43 53
43 57
43 64
43 67
43 71
43 76
43 81
43 82
43 93
43 103
43 107
43 115
43 123
43 128
43 131
43 151
43 159
43 167
43 183
43 214
43 223
43 251
43 258
44 48
44 52
44 53
44 55
44 57
44 63
44 64
44 67
44 70
44 82
44 85
44 86
44 93
44 94
44 103
44 105
44 107
44 121
44 145
44 161
44 168
44 214
44 236
44 300
44 323
44 428
45 48
45 50
45 55
45 57
45 61
45 63
45 108
45 138
45 184
45 197
45 229
45 264
45 266
45 320
45 351
45 356
45 383
45 393
45 402
45 424
45 539
45 540
45 541
45 542
45 543
45 544
45 625
45 636
45 640
45 644
45 657
45 660
45 662
45 663
45 792
45 815
45 825
45 914
45 915
45 946
46 48
46 50
46 53
46 54
46 58
46 60
46 66
46 69
46 86
46 117
46 168
46 182
46 199
46 200
46 216
46 300
47 50
47 55
47 63
47 75
47 652
47 949
48 50
48 55
48 57
48 58
48 59
48 60
48 64
48 70
48 75
48 82
48 103
48 107
48 122
48 123
48 161
48 165
48 169
48 215
48 300
48 550
48 799
49 238
49 267
49 362
49 563
49 567
49 592
49 865
50 55
50 58
50 60
50 61
50 63
50 65
50 69
50 70
50 75
50 82
50 105
50 107
50 110
51 53
51 65
51 67
51 68
51 84
51 93
51 103
51 115
51 120
51 128
51 287
51 307
52 58
52 60
52 63
52 65
52 71
52 73
52 75
52 76
52 81
52 82
52 86
52 89
52 90
52 99
52 103
52 106
52 107
52 109
52 113
52 114
52 121
52 123
52 131
52 135
52 137
52 169
52 180
52 210
52 531
52 864
53 54
53 55
53 69
53 70
53 700
54 496
54 785
54 786
55 57
55 58
55 59
55 60
55 61
55 63
55 64
55 65
55 70
55 75
55 82
55 85
55 93
55 94
55 103
55 107
55 161
55 167
55 202
55 249
55 324
55 428
56 451
56 610
56 892
56 896
57 61
57 389
57 702
58 63
58 69
58 182
58 199
58 354
58 374
58 433
58 441
58 532
58 549
59 63
59 430
59 628
59 860
60 68
60 69
60 117
60 154
60 168
60 388
61 65
61 71
61 75
61 76
61 82
61 107
61 109
61 124
61 135
61 136
61 167
61 224
61 282
62 63
62 835
62 836
62 997
62 998
62 999
63 91
63 110
63 124
63 146
63 149
63 166
63 170
63 172
63 422
64 245
64 289
65 69
65 269
66 69
66 70
66 105
66 109
66 114
66 126
66 135
66 196
66 231
66 418
66 448
66 464
66 534
66 570
66 603
66 809
66 852
66 863
66 897
66 899
66 902
67 179
67 212
67 230
67 463
68 225
68 280
68 780
68 781
68 782
69 71
69 81
69 82
69 86
69 90
69 105
69 107
69 109
69 110
69 123
69 126
69 135
69 137
69 161
69 180
69 397
70 75
70 92
70 93
70 94
70 237
70 262
70 286
70 622
71 149
71 166
71 266
71 416
72 259
72 512
72 519
73 89
73 114
73 126
73 431
73 675
73 676
73 677
73 678
74 108
74 136
74 266
74 269
74 365
74 370
74 382
74 611
75 76
75 93
75 156
75 180
75 190
75 209
76 93
76 106
77 181
77 353
77 547
78 136
78 416
79 276
79 414
79 661
80 177
80 378
80 679
80 796
81 105
81 234
81 444
81 779
81 787
81 966
82 309
83 357
83 646
85 89
85 651
86 413
86 420
88 304
88 729
89 992
90 314
90 451
90 485
90 642
91 326
91 338
91 495
91 582
91 831
92 201
92 227
92 237
92 262
92 286
92 526
93 105
94 219
94 227
94 262
94 286
95 658
96 205
96 522
96 692
98 460
99 105
99 284
99 581
100 299
100 574
100 575
100 618
100 924
101 269
102 174
102 347
103 272
103 386
103 800
104 136
104 191
104 293
104 369
104 536
104 909
104 985
105 113
105 115
105 432
106 310
106 471
106 472
106 521
108 276
108 370
108 371
108 382
108 647
108 660
109 630
109 631
109 632
109 633
110 360
110 778
111 372
111 824
112 136
112 573
114 196
114 325
114 418
115 253
115 470
116 244
116 357
117 374
117 413
117 798
119 261
119 462
120 349
120 366
122 346
122 473
122 474
122 550
122 683
122 814
122 866
125 789
125 790
126 330
126 431
127 823
129 155
129 249
130 304
132 275
132 394
132 442
133 443
133 834
134 144
134 320
134 356
134 911
137 435
138 449
138 454
139 269
139 278
139 283
139 695
140 360
140 778
140 838
141 226
141 666
142 810
142 811
143 365
143 552
144 826
145 368
146 271
147 371
147 565
147 787
147 820
148 210
148 627
150 387
150 420
151 427
152 170
152 296
152 554
152 555
152 556
152 632
152 681
152 807
153 458
153 562
155 260
157 637
157 638
158 447
158 576
159 218
159 653
160 676
162 298
162 395
162 940
162 982
163 331
164 359
165 453
168 218
169 239
169 435
170 257
170 292
170 531
171 619
171 889
172 176
173 500
175 272
175 386
176 441
178 517
178 993
181 547
182 441
182 532
184 254
184 568
184 589
184 921
185 239
185 290
186 627
188 545
188 614
189 295
192 297
194 281
194 950
195 452
195 516
195 687
195 851
197 424
199 678
203 366
205 813
207 368
207 828
208 634
209 340
209 845
211 583
212 920
213 649
215 293
216 345
216 473
216 986
217 530
219 286
219 622
222 643
222 644
222 645
222 783
223 651
226 299
228 334
228 408
230 389
232 827
233 777
236 295
237 572
237 623
238 306
239 894
240 317
240 367
243 624
243 959
244 712
245 392
249 324
249 548
250 417
252 616
255 625
256 337
259 468
260 575
270 369
271 529
275 404
283 284
290 954
294 450
296 557
297 876
297 910
301 440
311 334
315 522
318 459
321 355
324 347
326 803
333 437
336 477
337 468
341 702
345 346
358 454
361 629
362 722
389 515
391 396
409 410
416 797
430 794
430 991
445 837
481 513
564 565
